
Gurobi 12.0.2 (win64) logging started Fri Jun  6 10:09:01 2025

Set parameter LogFile to value "C:\Ioana\_uni\honours\slp\algorithm\Main_files\results\others\prox_tubules_new\Task_002_Sample001_irr_gurobi.log"
Gurobi Optimizer version 12.0.2 build v12.0.2rc0 (win64 - Windows 11.0 (26100.2))

CPU model: Intel(R) Core(TM) Ultra 5 125H, instruction set [SSE2|AVX|AVX2]
Thread count: 14 physical cores, 18 logical processors, using up to 18 threads

Non-default parameters:
TimeLimit  2200

Optimize a model with 47658 rows, 34811 columns and 147858 nonzeros
Model fingerprint: 0x052c2854
Variable types: 17417 continuous, 17394 integer (17394 binary)
Coefficient statistics:
  Matrix range     [1e-04, 8e+04]
  Objective range  [1e-04, 1e+01]
  Bounds range     [1e+00, 1e+03]
  RHS range        [1e+00, 1e+00]
Presolve removed 31250 rows and 21843 columns
Presolve time: 0.35s
Presolved: 16408 rows, 12968 columns, 54605 nonzeros
Variable types: 6422 continuous, 6546 integer (6546 binary)

Root relaxation: objective 9.138500e-03, 3242 iterations, 0.30 seconds (0.49 work units)

    Nodes    |    Current Node    |     Objective Bounds      |     Work
 Expl Unexpl |  Obj  Depth IntInf | Incumbent    BestBd   Gap | It/Node Time

     0     0    0.00914    0   15          -    0.00914      -     -    0s
H    0     0                       6.3393127    0.00914   100%     -    0s
     0     0    2.66827    0   34    6.33931    2.66827  57.9%     -    1s
     0     0    2.66827    0   34    6.33931    2.66827  57.9%     -    1s
     0     0    2.71481    0   32    6.33931    2.71481  57.2%     -    1s
     0     0    4.26012    0   31    6.33931    4.26012  32.8%     -    1s
     0     0    4.33980    0   52    6.33931    4.33980  31.5%     -    1s
     0     0    4.33980    0   51    6.33931    4.33980  31.5%     -    1s
     0     0    5.12199    0   11    6.33931    5.12199  19.2%     -    1s
     0     0    5.12220    0   32    6.33931    5.12220  19.2%     -    1s
     0     0    5.58285    0    4    6.33931    5.58285  11.9%     -    1s
     0     0    5.58285    0   18    6.33931    5.58285  11.9%     -    1s
     0     0          -    0         6.33931    6.33910  0.00%     -    1s

Cutting planes:
  Gomory: 8
  Cover: 6
  Implied bound: 2
  Clique: 1
  MIR: 9
  Flow cover: 23
  Flow path: 12
  Network: 3
  Relax-and-lift: 4

Explored 1 nodes (5633 simplex iterations) in 1.83 seconds (2.07 work units)
Thread count was 18 (of 18 available processors)

Solution count 1: 6.33931 

Optimal solution found (tolerance 1.00e-04)
Best objective 6.339312730879e+00, best bound 6.339100416194e+00, gap 0.0033%

Gurobi 12.0.2 (win64) logging started Fri Jun  6 14:25:20 2025

Set parameter LogFile to value "C:\Ioana\_uni\honours\slp\algorithm\Main_files\results\others\prox_tubules_new\Task_002_Sample001_irr_gurobi.log"
Gurobi Optimizer version 12.0.2 build v12.0.2rc0 (win64 - Windows 11.0 (26100.2))

CPU model: Intel(R) Core(TM) Ultra 5 125H, instruction set [SSE2|AVX|AVX2]
Thread count: 14 physical cores, 18 logical processors, using up to 18 threads

Non-default parameters:
TimeLimit  2200

Optimize a model with 47658 rows, 34811 columns and 147858 nonzeros
Model fingerprint: 0x052c2854
Variable types: 17417 continuous, 17394 integer (17394 binary)
Coefficient statistics:
  Matrix range     [1e-04, 8e+04]
  Objective range  [1e-04, 1e+01]
  Bounds range     [1e+00, 1e+03]
  RHS range        [1e+00, 1e+00]
Presolve removed 31250 rows and 21843 columns
Presolve time: 0.32s
Presolved: 16408 rows, 12968 columns, 54605 nonzeros
Variable types: 6422 continuous, 6546 integer (6546 binary)

Root relaxation: objective 9.138500e-03, 3242 iterations, 0.27 seconds (0.49 work units)

    Nodes    |    Current Node    |     Objective Bounds      |     Work
 Expl Unexpl |  Obj  Depth IntInf | Incumbent    BestBd   Gap | It/Node Time

     0     0    0.00914    0   15          -    0.00914      -     -    0s
H    0     0                       6.3393127    0.00914   100%     -    0s
     0     0    2.66827    0   34    6.33931    2.66827  57.9%     -    1s
     0     0    2.66827    0   34    6.33931    2.66827  57.9%     -    1s
     0     0    2.71481    0   32    6.33931    2.71481  57.2%     -    1s
     0     0    4.26012    0   31    6.33931    4.26012  32.8%     -    1s
     0     0    4.33980    0   52    6.33931    4.33980  31.5%     -    1s
     0     0    4.33980    0   51    6.33931    4.33980  31.5%     -    1s
     0     0    5.12199    0   11    6.33931    5.12199  19.2%     -    1s
     0     0    5.12220    0   32    6.33931    5.12220  19.2%     -    1s
     0     0    5.58285    0    4    6.33931    5.58285  11.9%     -    1s
     0     0    5.58285    0   18    6.33931    5.58285  11.9%     -    1s
     0     0          -    0         6.33931    6.33910  0.00%     -    1s

Cutting planes:
  Gomory: 8
  Cover: 6
  Implied bound: 2
  Clique: 1
  MIR: 9
  Flow cover: 23
  Flow path: 12
  Network: 3
  Relax-and-lift: 4

Explored 1 nodes (5633 simplex iterations) in 1.83 seconds (2.07 work units)
Thread count was 18 (of 18 available processors)

Solution count 1: 6.33931 

Optimal solution found (tolerance 1.00e-04)
Best objective 6.339312730879e+00, best bound 6.339100416194e+00, gap 0.0033%
